90 15265169
76 67 40 86 55 60 9 24 13 28 30 75 21 23 89 10 87 68 42 48 2 50 35 83 84 46 36 8 82 27 44 20 63 4 22 70 54 6 72 81 85 77 45 65 47 32 53 59 37 34 11 16 5 38 19 69 12 1 39 31 41 33 79 14 90 61 49 29 88 52 43 74 26 78 56 25 66 15 58 7 57 3 71 62 80 17 18 73 51 64 
